1
1000
85
384 1
386 1
259 1
388 1
342 1
449 1
266 1
450 1
271 1
272 1
273 2
402 1
367 1
276 1
430 1
278 1
407 1
408 3
281 1
283 1
284 1
445 2
312 1
418 1
440 1
293 1
470 1
389 2
412 1
298 1
455 1
302 1
175 1
432 1
177 1
179 1
181 1
457 1
184 1
185 1
442 1
415 1
394 1
373 3
320 1
447 2
194 1
195 1
326 1
199 1
200 1
437 1
330 1
332 1
205 1
207 1
209 2
468 1
214 1
343 2
346 1
493 1
476 1
400 1
443 1
486 1
230 1
359 1
233 1
362 2
364 1
460 1
451 1
239 2
240 1
424 2
242 1
243 1
245 1
489 1
425 1
404 2
379 1
380 1
255 2
